192
352
338
216
1
40
387
131
377
422
217
361
422
191
293
62
298
225
303
106
263
365
485
390
490
57
325
262
76
390
224
235
404
28
60
5
121
183
416
439
494
478
367
22
470
210
445
129
89
392
213
262
81
259
390
450
454
199
253
85
312
246
360
208
141
456
359
123
274
338
428
341
290
384
347
6
344
449
207
402
450
3
44
196
243
324
288
379
97
407
252
124
171
227
190
443
460
168
40
294
267
143
380
82
238
27
99
466
434
78
228
230
453
38
180
368
149
455
361
163
60
328
298
383
444
338
475
377
144
92
138
143
129
19
417
393
182
121
134
489
202
204
110
208
165
105
149
333
349
330
251
77
15
8
440
265
73
289
161
33
47
248
333
462
464
95
406
87
121
468
268
296
492
143
451
216
151
99
248
351
269
296
17
407
129
313
29
342
108
37
422
184
247
479
